
Gurobi 11.0.3 (linux64) logging started Thu Nov 21 12:26:02 2024

Set parameter LogFile to value "/home/yihong/Coding/OR_SUC/SUC_results_bigM100000_thread4/case24_ieee_rts_theta0.5_epsilon0.05_gurobi_seed170000_num_gen100_N_WDR100_load_scaling_factor1_proposed_T8quadra_cost.txt"
Set parameter TimeLimit to value 3600
Gurobi Optimizer version 11.0.3 build v11.0.3rc0 (linux64 - "Ubuntu 20.04.6 LTS")

CPU model: AMD EPYC 7532 32-Core Processor, instruction set [SSE2|AVX|AVX2]
Thread count: 64 physical cores, 128 logical processors, using up to 4 threads

Optimize a model with 18854 rows, 10021 columns and 437434 nonzeros
Model fingerprint: 0x9b6a2e1d
Model has 800 quadratic constraints
Variable types: 9221 continuous, 800 integer (800 binary)
Coefficient statistics:
  Matrix range     [3e-04, 2e+03]
  QMatrix range    [2e-03, 8e-03]
  QLMatrix range   [5e-02, 6e+01]
  Objective range  [1e+00, 1e+00]
  Bounds range     [1e+00, 1e+00]
  RHS range        [1e+00, 9e+03]
Presolve removed 15540 rows and 4389 columns
Presolve time: 0.12s
Presolved: 3314 rows, 5632 columns, 18880 nonzeros
Presolved model has 800 quadratic constraint(s)
Variable types: 4832 continuous, 800 integer (800 binary)

Root relaxation: objective 1.724277e+04, 2796 iterations, 0.05 seconds (0.06 work units)

    Nodes    |    Current Node    |     Objective Bounds      |     Work
 Expl Unexpl |  Obj  Depth IntInf | Incumbent    BestBd   Gap | It/Node Time

     0     0 17242.7676    0    8          - 17242.7676      -     -    0s
     0     0 109748.829    0  215          - 109748.829      -     -    0s
     0     0 109753.875    0  215          - 109753.875      -     -    0s
     0     0 194071.008    0  136          - 194071.008      -     -    0s
     0     0 194858.134    0  136          - 194858.134      -     -    0s
     0     0 194935.800    0   88          - 194935.800      -     -    0s
     0     0 194942.427    0   88          - 194942.427      -     -    0s
     0     0 194942.427    0   88          - 194942.427      -     -    0s
     0     0 194942.710    0   88          - 194942.710      -     -    0s
     0     2 194942.710    0   88          - 194942.710      -     -    3s
H   89    95                    194997.81740 194959.457  0.02%  11.3    3s
*   89    95              34    194997.81740 194959.457  0.02%  11.4    3s

Cutting planes:
  Gomory: 34
  Implied bound: 198
  MIR: 38
  Flow cover: 91
  RLT: 1

Explored 96 nodes (8179 simplex iterations) in 3.63 seconds (3.41 work units)
Thread count was 4 (of 128 available processors)

Solution count 2: 194998 194998 

Optimal solution found (tolerance 1.00e-03)
Warning: max constraint violation (9.7246e-08) exceeds tolerance
Best objective 1.949978174040e+05, best bound 1.949594572440e+05, gap 0.0197%
